Gurobi Optimizer version 9.5.0 build v9.5.0rc5 (mac64[x86])
Thread count: 2 physical cores, 4 logical processors, using up to 4 threads
Optimize a model with 14 rows, 72 columns and 72 nonzeros
Model fingerprint: 0xc4a4a254
Coefficient statistics:
  Matrix range     [1e+00, 1e+00]
  Objective range  [8e+00, 1e+01]
  Bounds range     [1e+00, 1e+00]
  RHS range        [2e+00, 7e+00]
Presolve removed 1 rows and 7 columns
Presolve time: 0.00s

Solved in 0 iterations and 0.00 seconds (0.00 work units)
Infeasible model

User-callback calls 17, time in user-callback 0.00 sec
